32
82
78
36
63
59
74
161
99
60
97
114
114
61
95
86
121
280
62
69
88
53
54
38
78
185
56
44
51
62
250
80
76
62
79
71
117
159
67
70
80
122
118
77
126
334
93
65
115
78
74
72
87
127
63
116
411
64
98
126
94
82
101
113
108
116
300
72
102
80
113
93
62
147
119
111
93
50
96
102
111
86
87
157
195
159
123
80
76
83
43
119
120
79
68
82
110
100
170
